1326709
55, 12, 65, 7, 88, 60, 76, 105, 104, 64, 68, 106, 23, 15, 40, 8, 50, 36, 28, 92, 108, 42, 18, 53, 100, 58, 22, 30, 6, 102, 54, 78, 33, 95, 32, 43, 85, 61, 4, 67, 79, 24, 109, 90, 45, 82, 1, 5, 35, 98, 101, 34, 52, 29, 46, 59, 84, 51, 2, 81, 94, 107, 16, 25, 83, 3, 63, 20, 44, 103, 56, 74, 48, 80, 17, 21, 13, 93, 96, 87, 62, 19, 73, 99, 71, 47, 97, 89, 91, 11, 49, 10, 66, 77, 9, 37, 26, 41, 38, 72, 57, 75, 86, 27, 69, 70, 31, 39, 14
